p cnf 639 1401              
-2 -1 -65 0
65 -79 0
-1 66 0
-2 66 0
1 2 -66 0
-66 -3 -67 0
67 -79 0
-3 68 0
-66 68 0
3 66 -68 0
-68 -4 -69 0
69 -79 0
-4 70 0
-68 70 0
4 68 -70 0
-70 -5 -71 0
71 -79 0
-5 72 0
-70 72 0
5 70 -72 0
-72 -6 -73 0
73 -79 0
-6 74 0
-72 74 0
6 72 -74 0
-74 -7 -75 0
75 -79 0
-7 76 0
-74 76 0
7 74 -76 0
-76 -8 -77 0
77 -79 0
8 76 -78 0
78 -79 0
79 -185 0
-10 -9 -80 0
80 -94 0
-9 81 0
-10 81 0
9 10 -81 0
-81 -11 -82 0
82 -94 0
-11 83 0
-81 83 0
11 81 -83 0
-83 -12 -84 0
84 -94 0
-12 85 0
-83 85 0
12 83 -85 0
-85 -13 -86 0
86 -94 0
-13 87 0
-85 87 0
13 85 -87 0
-87 -14 -88 0
88 -94 0
-14 89 0
-87 89 0
14 87 -89 0
-89 -15 -90 0
90 -94 0
-15 91 0
-89 91 0
15 89 -91 0
-91 -16 -92 0
92 -94 0
16 91 -93 0
93 -94 0
94 -185 0
-18 -17 -95 0
95 -109 0
-17 96 0
-18 96 0
17 18 -96 0
-96 -19 -97 0
97 -109 0
-19 98 0
-96 98 0
19 96 -98 0
-98 -20 -99 0
99 -109 0
-20 100 0
-98 100 0
20 98 -100 0
-100 -21 -101 0
101 -109 0
-21 102 0
-100 102 0
21 100 -102 0
-102 -22 -103 0
103 -109 0
-22 104 0
-102 104 0
22 102 -104 0
-104 -23 -105 0
105 -109 0
-23 106 0
-104 106 0
23 104 -106 0
-106 -24 -107 0
107 -109 0
24 106 -108 0
108 -109 0
109 -185 0
-26 -25 -110 0
110 -124 0
-25 111 0
-26 111 0
25 26 -111 0
-111 -27 -112 0
112 -124 0
-27 113 0
-111 113 0
27 111 -113 0
-113 -28 -114 0
114 -124 0
-28 115 0
-113 115 0
28 113 -115 0
-115 -29 -116 0
116 -124 0
-29 117 0
-115 117 0
29 115 -117 0
-117 -30 -118 0
118 -124 0
-30 119 0
-117 119 0
30 117 -119 0
-119 -31 -120 0
120 -124 0
-31 121 0
-119 121 0
31 119 -121 0
-121 -32 -122 0
122 -124 0
32 121 -123 0
123 -124 0
124 -185 0
-34 -33 -125 0
125 -139 0
-33 126 0
-34 126 0
33 34 -126 0
-126 -35 -127 0
127 -139 0
-35 128 0
-126 128 0
35 126 -128 0
-128 -36 -129 0
129 -139 0
-36 130 0
-128 130 0
36 128 -130 0
-130 -37 -131 0
131 -139 0
-37 132 0
-130 132 0
37 130 -132 0
-132 -38 -133 0
133 -139 0
-38 134 0
-132 134 0
38 132 -134 0
-134 -39 -135 0
135 -139 0
-39 136 0
-134 136 0
39 134 -136 0
-136 -40 -137 0
137 -139 0
40 136 -138 0
138 -139 0
139 -185 0
-42 -41 -140 0
140 -154 0
-41 141 0
-42 141 0
41 42 -141 0
-141 -43 -142 0
142 -154 0
-43 143 0
-141 143 0
43 141 -143 0
-143 -44 -144 0
144 -154 0
-44 145 0
-143 145 0
44 143 -145 0
-145 -45 -146 0
146 -154 0
-45 147 0
-145 147 0
45 145 -147 0
-147 -46 -148 0
148 -154 0
-46 149 0
-147 149 0
46 147 -149 0
-149 -47 -150 0
150 -154 0
-47 151 0
-149 151 0
47 149 -151 0
-151 -48 -152 0
152 -154 0
48 151 -153 0
153 -154 0
154 -185 0
-50 -49 -155 0
155 -169 0
-49 156 0
-50 156 0
49 50 -156 0
-156 -51 -157 0
157 -169 0
-51 158 0
-156 158 0
51 156 -158 0
-158 -52 -159 0
159 -169 0
-52 160 0
-158 160 0
52 158 -160 0
-160 -53 -161 0
161 -169 0
-53 162 0
-160 162 0
53 160 -162 0
-162 -54 -163 0
163 -169 0
-54 164 0
-162 164 0
54 162 -164 0
-164 -55 -165 0
165 -169 0
-55 166 0
-164 166 0
55 164 -166 0
-166 -56 -167 0
167 -169 0
56 166 -168 0
168 -169 0
169 -185 0
-58 -57 -170 0
170 -184 0
-57 171 0
-58 171 0
57 58 -171 0
-171 -59 -172 0
172 -184 0
-59 173 0
-171 173 0
59 171 -173 0
-173 -60 -174 0
174 -184 0
-60 175 0
-173 175 0
60 173 -175 0
-175 -61 -176 0
176 -184 0
-61 177 0
-175 177 0
61 175 -177 0
-177 -62 -178 0
178 -184 0
-62 179 0
-177 179 0
62 177 -179 0
-179 -63 -180 0
180 -184 0
-63 181 0
-179 181 0
63 179 -181 0
-181 -64 -182 0
182 -184 0
64 181 -183 0
183 -184 0
184 -185 0
185 -252 0
-8 -186 0
-7 -186 0
-6 -186 0
-5 -186 0
-4 -186 0
-3 -186 0
-2 -186 0
8 7 6 5 4 3 2 186 0
186 -194 0
-16 -187 0
-15 -187 0
-14 -187 0
-13 -187 0
-12 -187 0
-11 -187 0
-9 -187 0
16 15 14 13 12 11 9 187 0
187 -194 0
-24 -188 0
-23 -188 0
-22 -188 0
-21 -188 0
-20 -188 0
-18 -188 0
-17 -188 0
24 23 22 21 20 18 17 188 0
188 -194 0
-32 -189 0
-31 -189 0
-30 -189 0
-29 -189 0
-27 -189 0
-26 -189 0
-25 -189 0
32 31 30 29 27 26 25 189 0
189 -194 0
-40 -190 0
-39 -190 0
-38 -190 0
-36 -190 0
-35 -190 0
-34 -190 0
-33 -190 0
40 39 38 36 35 34 33 190 0
190 -194 0
-48 -191 0
-47 -191 0
-45 -191 0
-44 -191 0
-43 -191 0
-42 -191 0
-41 -191 0
48 47 45 44 43 42 41 191 0
191 -194 0
-56 -192 0
-54 -192 0
-53 -192 0
-52 -192 0
-51 -192 0
-50 -192 0
-49 -192 0
56 54 53 52 51 50 49 192 0
192 -194 0
-63 -193 0
-62 -193 0
-61 -193 0
-60 -193 0
-59 -193 0
-58 -193 0
-57 -193 0
63 62 61 60 59 58 57 193 0
193 -194 0
194 -252 0
-16 -195 0
-15 -195 0
-14 -195 0
-13 -195 0
-12 -195 0
-11 -195 0
-10 -195 0
-24 -196 0
-23 -196 0
-22 -196 0
-21 -196 0
-20 -196 0
-19 -196 0
-18 -196 0
-32 -197 0
-31 -197 0
-30 -197 0
-29 -197 0
-28 -197 0
-27 -197 0
-26 -197 0
-40 -198 0
-39 -198 0
-38 -198 0
-37 -198 0
-36 -198 0
-35 -198 0
-34 -198 0
-48 -199 0
-47 -199 0
-46 -199 0
-45 -199 0
-44 -199 0
-43 -199 0
-42 -199 0
-56 -200 0
-55 -200 0
-54 -200 0
-53 -200 0
-52 -200 0
-51 -200 0
-50 -200 0
-64 -201 0
-63 -201 0
-62 -201 0
-61 -201 0
-60 -201 0
-59 -201 0
-58 -201 0
-8 -202 0
-7 -202 0
-6 -202 0
-5 -202 0
-4 -202 0
-3 -202 0
-1 -202 0
-24 -203 0
-23 -203 0
-22 -203 0
-21 -203 0
-20 -203 0
-19 -203 0
-17 -203 0
-32 -204 0
-31 -204 0
-30 -204 0
-29 -204 0
-28 -204 0
-27 -204 0
-25 -204 0
-40 -205 0
-39 -205 0
-38 -205 0
-37 -205 0
-36 -205 0
-35 -205 0
-33 -205 0
-48 -206 0
-47 -206 0
-46 -206 0
-45 -206 0
-44 -206 0
-43 -206 0
-41 -206 0
-56 -207 0
-55 -207 0
-54 -207 0
-53 -207 0
-52 -207 0
-51 -207 0
-49 -207 0
-64 -208 0
-63 -208 0
-62 -208 0
-61 -208 0
-60 -208 0
-59 -208 0
-57 -208 0
-8 -209 0
-7 -209 0
-6 -209 0
-5 -209 0
-4 -209 0
-2 -209 0
-1 -209 0
-16 -210 0
-15 -210 0
-14 -210 0
-13 -210 0
-12 -210 0
-10 -210 0
-9 -210 0
-32 -211 0
-31 -211 0
-30 -211 0
-29 -211 0
-28 -211 0
-26 -211 0
-25 -211 0
-40 -212 0
-39 -212 0
-38 -212 0
-37 -212 0
-36 -212 0
-34 -212 0
-33 -212 0
-48 -213 0
-47 -213 0
-46 -213 0
-45 -213 0
-44 -213 0
-42 -213 0
-41 -213 0
-56 -214 0
-55 -214 0
-54 -214 0
-53 -214 0
-52 -214 0
-50 -214 0
-49 -214 0
-64 -215 0
-63 -215 0
-62 -215 0
-61 -215 0
-60 -215 0
-58 -215 0
-57 -215 0
-8 -216 0
-7 -216 0
-6 -216 0
-5 -216 0
-3 -216 0
-2 -216 0
-1 -216 0
-16 -217 0
-15 -217 0
-14 -217 0
-13 -217 0
-11 -217 0
-10 -217 0
-9 -217 0
-24 -218 0
-23 -218 0
-22 -218 0
-21 -218 0
-19 -218 0
-18 -218 0
-17 -218 0
-40 -219 0
-39 -219 0
-38 -219 0
-37 -219 0
-35 -219 0
-34 -219 0
-33 -219 0
-48 -220 0
-47 -220 0
-46 -220 0
-45 -220 0
-43 -220 0
-42 -220 0
-41 -220 0
-56 -221 0
-55 -221 0
-54 -221 0
-53 -221 0
-51 -221 0
-50 -221 0
-49 -221 0
-64 -222 0
-63 -222 0
-62 -222 0
-61 -222 0
-59 -222 0
-58 -222 0
-57 -222 0
-8 -223 0
-7 -223 0
-6 -223 0
-4 -223 0
-3 -223 0
-2 -223 0
-1 -223 0
-16 -224 0
-15 -224 0
-14 -224 0
-12 -224 0
-11 -224 0
-10 -224 0
-9 -224 0
-24 -225 0
-23 -225 0
-22 -225 0
-20 -225 0
-19 -225 0
-18 -225 0
-17 -225 0
-32 -226 0
-31 -226 0
-30 -226 0
-28 -226 0
-27 -226 0
-26 -226 0
-25 -226 0
-48 -227 0
-47 -227 0
-46 -227 0
-44 -227 0
-43 -227 0
-42 -227 0
-41 -227 0
-56 -228 0
-55 -228 0
-54 -228 0
-52 -228 0
-51 -228 0
-50 -228 0
-49 -228 0
-64 -229 0
-63 -229 0
-62 -229 0
-60 -229 0
-59 -229 0
-58 -229 0
-57 -229 0
-8 -230 0
-7 -230 0
-5 -230 0
-4 -230 0
-3 -230 0
-2 -230 0
-1 -230 0
-16 -231 0
-15 -231 0
-13 -231 0
-12 -231 0
-11 -231 0
-10 -231 0
-9 -231 0
-24 -232 0
-23 -232 0
-21 -232 0
-20 -232 0
-19 -232 0
-18 -232 0
-17 -232 0
-32 -233 0
-31 -233 0
-29 -233 0
-28 -233 0
-27 -233 0
-26 -233 0
-25 -233 0
-40 -234 0
-39 -234 0
-37 -234 0
-36 -234 0
-35 -234 0
-34 -234 0
-33 -234 0
-56 -235 0
-55 -235 0
-53 -235 0
-52 -235 0
-51 -235 0
-50 -235 0
-49 -235 0
-64 -236 0
-63 -236 0
-61 -236 0
-60 -236 0
-59 -236 0
-58 -236 0
-57 -236 0
-8 -237 0
-6 -237 0
-5 -237 0
-4 -237 0
-3 -237 0
-2 -237 0
-1 -237 0
-16 -238 0
-14 -238 0
-13 -238 0
-12 -238 0
-11 -238 0
-10 -238 0
-9 -238 0
-24 -239 0
-22 -239 0
-21 -239 0
-20 -239 0
-19 -239 0
-18 -239 0
-17 -239 0
-32 -240 0
-30 -240 0
-29 -240 0
-28 -240 0
-27 -240 0
-26 -240 0
-25 -240 0
-40 -241 0
-38 -241 0
-37 -241 0
-36 -241 0
-35 -241 0
-34 -241 0
-33 -241 0
-48 -242 0
-46 -242 0
-45 -242 0
-44 -242 0
-43 -242 0
-42 -242 0
-41 -242 0
-64 -243 0
-62 -243 0
-61 -243 0
-60 -243 0
-59 -243 0
-58 -243 0
-57 -243 0
-7 -244 0
-6 -244 0
-5 -244 0
-4 -244 0
-3 -244 0
-2 -244 0
-1 -244 0
-15 -245 0
-14 -245 0
-13 -245 0
-12 -245 0
-11 -245 0
-10 -245 0
-9 -245 0
-23 -246 0
-22 -246 0
-21 -246 0
-20 -246 0
-19 -246 0
-18 -246 0
-17 -246 0
-31 -247 0
-30 -247 0
-29 -247 0
-28 -247 0
-27 -247 0
-26 -247 0
-25 -247 0
-39 -248 0
-38 -248 0
-37 -248 0
-36 -248 0
-35 -248 0
-34 -248 0
-33 -248 0
-47 -249 0
-46 -249 0
-45 -249 0
-44 -249 0
-43 -249 0
-42 -249 0
-41 -249 0
-55 -250 0
-54 -250 0
-53 -250 0
-52 -250 0
-51 -250 0
-50 -250 0
-49 -250 0
-193 -192 -191 -190 -189 -188 -187 -186 195 196 197 198 199 200 201 202 203 204 205 206 207 208 209 210 211 212 213 214 215 216 217 218 219 220 221 222 223 224 225 226 227 228 229 230 231 232 233 234 235 236 237 238 239 240 241 242 243 244 245 246 247 248 249 250 -251 0
251 -252 0
-1 10 -253 0
253 -307 0
-1 -10 254 0
1 10 254 0
-10 10 254 0
-2 9 -255 0
-254 255 -256 0
256 -307 0
-2 -9 257 0
2 9 257 0
-9 9 257 0
-254 -257 258 0
-3 11 -259 0
-258 259 -260 0
260 -307 0
-3 -11 261 0
3 11 261 0
-11 11 261 0
-258 -261 262 0
-4 12 -263 0
-262 263 -264 0
264 -307 0
-4 -12 265 0
4 12 265 0
-12 12 265 0
-262 -265 266 0
-5 13 -267 0
-266 267 -268 0
268 -307 0
-5 -13 269 0
5 13 269 0
-13 13 269 0
-266 -269 270 0
-6 14 -271 0
-270 271 -272 0
272 -307 0
-6 -14 273 0
6 14 273 0
-14 14 273 0
-270 -273 274 0
-7 15 -275 0
-274 275 -276 0
276 -307 0
-7 -15 277 0
7 15 277 0
-15 15 277 0
-274 -277 278 0
-8 16 -279 0
-278 279 -280 0
280 -307 0
-8 -16 281 0
8 16 281 0
-16 16 281 0
-278 -281 282 0
-17 18 -283 0
-282 283 -284 0
284 -307 0
-17 -18 285 0
17 18 285 0
-18 18 285 0
-282 -285 286 0
-25 26 -287 0
-286 287 -288 0
288 -307 0
-25 -26 289 0
25 26 289 0
-26 26 289 0
-286 -289 290 0
-33 34 -291 0
-290 291 -292 0
292 -307 0
-33 -34 293 0
33 34 293 0
-34 34 293 0
-290 -293 294 0
-41 42 -295 0
-294 295 -296 0
296 -307 0
-41 -42 297 0
41 42 297 0
-42 42 297 0
-294 -297 298 0
-49 50 -299 0
-298 299 -300 0
300 -307 0
-49 -50 301 0
49 50 301 0
-50 50 301 0
-298 -301 302 0
-57 58 -303 0
-302 303 -304 0
304 -307 0
307 -638 0
-2 3 -308 0
308 -362 0
-2 -3 309 0
2 3 309 0
-3 3 309 0
-9 17 -310 0
-309 310 -311 0
311 -362 0
-9 -17 312 0
9 17 312 0
-17 17 312 0
-309 -312 313 0
-10 19 -314 0
-313 314 -315 0
315 -362 0
-10 -19 316 0
10 19 316 0
-19 19 316 0
-313 -316 317 0
-11 18 -318 0
-317 318 -319 0
319 -362 0
-11 -18 320 0
11 18 320 0
-18 18 320 0
-317 -320 321 0
-12 20 -322 0
-321 322 -323 0
323 -362 0
-12 -20 324 0
12 20 324 0
-20 20 324 0
-321 -324 325 0
-13 21 -326 0
-325 326 -327 0
327 -362 0
-13 -21 328 0
13 21 328 0
-21 21 328 0
-325 -328 329 0
-14 22 -330 0
-329 330 -331 0
331 -362 0
-14 -22 332 0
14 22 332 0
-22 22 332 0
-329 -332 333 0
-15 23 -334 0
-333 334 -335 0
335 -362 0
-15 -23 336 0
15 23 336 0
-23 23 336 0
-333 -336 337 0
-16 24 -338 0
-337 338 -339 0
339 -362 0
-16 -24 340 0
16 24 340 0
-24 24 340 0
-337 -340 341 0
-26 27 -342 0
-341 342 -343 0
343 -362 0
-26 -27 344 0
26 27 344 0
-27 27 344 0
-341 -344 345 0
-34 35 -346 0
-345 346 -347 0
347 -362 0
-34 -35 348 0
34 35 348 0
-35 35 348 0
-345 -348 349 0
-42 43 -350 0
-349 350 -351 0
351 -362 0
-42 -43 352 0
42 43 352 0
-43 43 352 0
-349 -352 353 0
-50 51 -354 0
-353 354 -355 0
355 -362 0
-50 -51 356 0
50 51 356 0
-51 51 356 0
-353 -356 357 0
-58 59 -358 0
-357 358 -359 0
359 -362 0
362 -638 0
-3 4 -363 0
363 -417 0
-3 -4 364 0
3 4 364 0
-4 4 364 0
-11 12 -365 0
-364 365 -366 0
366 -417 0
-11 -12 367 0
11 12 367 0
-12 12 367 0
-364 -367 368 0
-17 25 -369 0
-368 369 -370 0
370 -417 0
-17 -25 371 0
17 25 371 0
-25 25 371 0
-368 -371 372 0
-18 26 -373 0
-372 373 -374 0
374 -417 0
-18 -26 375 0
18 26 375 0
-26 26 375 0
-372 -375 376 0
-19 28 -377 0
-376 377 -378 0
378 -417 0
-19 -28 379 0
19 28 379 0
-28 28 379 0
-376 -379 380 0
-20 27 -381 0
-380 381 -382 0
382 -417 0
-20 -27 383 0
20 27 383 0
-27 27 383 0
-380 -383 384 0
-21 29 -385 0
-384 385 -386 0
386 -417 0
-21 -29 387 0
21 29 387 0
-29 29 387 0
-384 -387 388 0
-22 30 -389 0
-388 389 -390 0
390 -417 0
-22 -30 391 0
22 30 391 0
-30 30 391 0
-388 -391 392 0
-23 31 -393 0
-392 393 -394 0
394 -417 0
-23 -31 395 0
23 31 395 0
-31 31 395 0
-392 -395 396 0
-24 32 -397 0
-396 397 -398 0
398 -417 0
-24 -32 399 0
24 32 399 0
-32 32 399 0
-396 -399 400 0
-35 36 -401 0
-400 401 -402 0
402 -417 0
-35 -36 403 0
35 36 403 0
-36 36 403 0
-400 -403 404 0
-43 44 -405 0
-404 405 -406 0
406 -417 0
-43 -44 407 0
43 44 407 0
-44 44 407 0
-404 -407 408 0
-51 52 -409 0
-408 409 -410 0
410 -417 0
-51 -52 411 0
51 52 411 0
-52 52 411 0
-408 -411 412 0
-59 60 -413 0
-412 413 -414 0
414 -417 0
417 -638 0
-4 5 -418 0
418 -472 0
-4 -5 419 0
4 5 419 0
-5 5 419 0
-12 13 -420 0
-419 420 -421 0
421 -472 0
-12 -13 422 0
12 13 422 0
-13 13 422 0
-419 -422 423 0
-20 21 -424 0
-423 424 -425 0
425 -472 0
-20 -21 426 0
20 21 426 0
-21 21 426 0
-423 -426 427 0
-25 33 -428 0
-427 428 -429 0
429 -472 0
-25 -33 430 0
25 33 430 0
-33 33 430 0
-427 -430 431 0
-26 34 -432 0
-431 432 -433 0
433 -472 0
-26 -34 434 0
26 34 434 0
-34 34 434 0
-431 -434 435 0
-27 35 -436 0
-435 436 -437 0
437 -472 0
-27 -35 438 0
27 35 438 0
-35 35 438 0
-435 -438 439 0
-28 37 -440 0
-439 440 -441 0
441 -472 0
-28 -37 442 0
28 37 442 0
-37 37 442 0
-439 -442 443 0
-29 36 -444 0
-443 444 -445 0
445 -472 0
-29 -36 446 0
29 36 446 0
-36 36 446 0
-443 -446 447 0
-30 38 -448 0
-447 448 -449 0
449 -472 0
-30 -38 450 0
30 38 450 0
-38 38 450 0
-447 -450 451 0
-31 39 -452 0
-451 452 -453 0
453 -472 0
-31 -39 454 0
31 39 454 0
-39 39 454 0
-451 -454 455 0
-32 40 -456 0
-455 456 -457 0
457 -472 0
-32 -40 458 0
32 40 458 0
-40 40 458 0
-455 -458 459 0
-44 45 -460 0
-459 460 -461 0
461 -472 0
-44 -45 462 0
44 45 462 0
-45 45 462 0
-459 -462 463 0
-52 53 -464 0
-463 464 -465 0
465 -472 0
-52 -53 466 0
52 53 466 0
-53 53 466 0
-463 -466 467 0
-60 61 -468 0
-467 468 -469 0
469 -472 0
472 -638 0
-5 6 -473 0
473 -527 0
-5 -6 474 0
5 6 474 0
-6 6 474 0
-13 14 -475 0
-474 475 -476 0
476 -527 0
-13 -14 477 0
13 14 477 0
-14 14 477 0
-474 -477 478 0
-21 22 -479 0
-478 479 -480 0
480 -527 0
-21 -22 481 0
21 22 481 0
-22 22 481 0
-478 -481 482 0
-29 30 -483 0
-482 483 -484 0
484 -527 0
-29 -30 485 0
29 30 485 0
-30 30 485 0
-482 -485 486 0
-33 41 -487 0
-486 487 -488 0
488 -527 0
-33 -41 489 0
33 41 489 0
-41 41 489 0
-486 -489 490 0
-34 42 -491 0
-490 491 -492 0
492 -527 0
-34 -42 493 0
34 42 493 0
-42 42 493 0
-490 -493 494 0
-35 43 -495 0
-494 495 -496 0
496 -527 0
-35 -43 497 0
35 43 497 0
-43 43 497 0
-494 -497 498 0
-36 44 -499 0
-498 499 -500 0
500 -527 0
-36 -44 501 0
36 44 501 0
-44 44 501 0
-498 -501 502 0
-37 46 -503 0
-502 503 -504 0
504 -527 0
-37 -46 505 0
37 46 505 0
-46 46 505 0
-502 -505 506 0
-38 45 -507 0
-506 507 -508 0
508 -527 0
-38 -45 509 0
38 45 509 0
-45 45 509 0
-506 -509 510 0
-39 47 -511 0
-510 511 -512 0
512 -527 0
-39 -47 513 0
39 47 513 0
-47 47 513 0
-510 -513 514 0
-40 48 -515 0
-514 515 -516 0
516 -527 0
-40 -48 517 0
40 48 517 0
-48 48 517 0
-514 -517 518 0
-53 54 -519 0
-518 519 -520 0
520 -527 0
-53 -54 521 0
53 54 521 0
-54 54 521 0
-518 -521 522 0
-61 62 -523 0
-522 523 -524 0
524 -527 0
527 -638 0
-6 7 -528 0
528 -582 0
-6 -7 529 0
6 7 529 0
-7 7 529 0
-14 15 -530 0
-529 530 -531 0
531 -582 0
-14 -15 532 0
14 15 532 0
-15 15 532 0
-529 -532 533 0
-22 23 -534 0
-533 534 -535 0
535 -582 0
-22 -23 536 0
22 23 536 0
-23 23 536 0
-533 -536 537 0
-30 31 -538 0
-537 538 -539 0
539 -582 0
-30 -31 540 0
30 31 540 0
-31 31 540 0
-537 -540 541 0
-38 39 -542 0
-541 542 -543 0
543 -582 0
-38 -39 544 0
38 39 544 0
-39 39 544 0
-541 -544 545 0
-41 49 -546 0
-545 546 -547 0
547 -582 0
-41 -49 548 0
41 49 548 0
-49 49 548 0
-545 -548 549 0
-42 50 -550 0
-549 550 -551 0
551 -582 0
-42 -50 552 0
42 50 552 0
-50 50 552 0
-549 -552 553 0
-43 51 -554 0
-553 554 -555 0
555 -582 0
-43 -51 556 0
43 51 556 0
-51 51 556 0
-553 -556 557 0
-44 52 -558 0
-557 558 -559 0
559 -582 0
-44 -52 560 0
44 52 560 0
-52 52 560 0
-557 -560 561 0
-45 53 -562 0
-561 562 -563 0
563 -582 0
-45 -53 564 0
45 53 564 0
-53 53 564 0
-561 -564 565 0
-46 55 -566 0
-565 566 -567 0
567 -582 0
-46 -55 568 0
46 55 568 0
-55 55 568 0
-565 -568 569 0
-47 54 -570 0
-569 570 -571 0
571 -582 0
-47 -54 572 0
47 54 572 0
-54 54 572 0
-569 -572 573 0
-48 56 -574 0
-573 574 -575 0
575 -582 0
-48 -56 576 0
48 56 576 0
-56 56 576 0
-573 -576 577 0
-62 63 -578 0
-577 578 -579 0
579 -582 0
582 -638 0
-7 8 -583 0
583 -637 0
-7 -8 584 0
7 8 584 0
-8 8 584 0
-15 16 -585 0
-584 585 -586 0
586 -637 0
-15 -16 587 0
15 16 587 0
-16 16 587 0
-584 -587 588 0
-23 24 -589 0
-588 589 -590 0
590 -637 0
-23 -24 591 0
23 24 591 0
-24 24 591 0
-588 -591 592 0
-31 32 -593 0
-592 593 -594 0
594 -637 0
-31 -32 595 0
31 32 595 0
-32 32 595 0
-592 -595 596 0
-39 40 -597 0
-596 597 -598 0
598 -637 0
-39 -40 599 0
39 40 599 0
-40 40 599 0
-596 -599 600 0
-47 48 -601 0
-600 601 -602 0
602 -637 0
-47 -48 603 0
47 48 603 0
-48 48 603 0
-600 -603 604 0
-49 57 -605 0
-604 605 -606 0
606 -637 0
-49 -57 607 0
49 57 607 0
-57 57 607 0
-604 -607 608 0
-50 58 -609 0
-608 609 -610 0
610 -637 0
-50 -58 611 0
50 58 611 0
-58 58 611 0
-608 -611 612 0
-51 59 -613 0
-612 613 -614 0
614 -637 0
-51 -59 615 0
51 59 615 0
-59 59 615 0
-612 -615 616 0
-52 60 -617 0
-616 617 -618 0
618 -637 0
-52 -60 619 0
52 60 619 0
-60 60 619 0
-616 -619 620 0
-53 61 -621 0
-620 621 -622 0
622 -637 0
-53 -61 623 0
53 61 623 0
-61 61 623 0
-620 -623 624 0
-54 62 -625 0
-624 625 -626 0
626 -637 0
-54 -62 627 0
54 62 627 0
-62 62 627 0
-624 -627 628 0
-55 64 -629 0
-628 629 -630 0
630 -637 0
-55 -64 631 0
55 64 631 0
-64 64 631 0
-628 -631 632 0
-56 63 -633 0
-632 633 -634 0
634 -637 0
637 -638 0
252 0
638 0
